molecule oh {
  pubchem:hydroxide
}

scf_e, scf_wfn = energy("B3LYP/cc-pVDZ", return_wfn=True)

HOMO = scf_wfn.epsilon_a_subset("AO", "ALL").np[scf_wfn.nalpha()]
LUMO = scf_wfn.epsilon_a_subset("AO", "ALL").np[scf_wfn.nalpha() + 1]

print(scf_wfn.nalpha())

na = scf_wfn.nalpha()

set cubeprop_tasks ["orbitals"]
set cubeprop_orbitals [5, 6, -5, -6]
set cubic_grid_overage [10, 10, 10]

cubeprop(scf_wfn)

